
Gurobi 7.0.1 (mac64, Python) logging started Fri Mar 24 15:25:12 2017

Read LP format model from file forest.lp
Reading time = 0.01 seconds
: 160 rows, 1945 columns, 10172 nonzeros
Read LP format model from file forest.lp
Reading time = 0.01 seconds
: 160 rows, 1945 columns, 10172 nonzeros

Gurobi 7.0.1 (mac64, Python) logging started Fri Mar 24 15:26:19 2017

Read LP format model from file forest.lp
Reading time = 0.01 seconds
: 160 rows, 1945 columns, 10172 nonzeros
Read LP format model from file forest.lp
Reading time = 0.01 seconds
: 160 rows, 1945 columns, 10172 nonzeros
Read LP format model from file forest.lp
Reading time = 0.02 seconds
: 160 rows, 1945 columns, 10172 nonzeros
Optimize a model with 160 rows, 1945 columns and 10172 nonzeros
Coefficient statistics:
  Matrix range     [1e+00, 2e+02]
  Objective range  [1e+00, 1e+00]
  Bounds range     [0e+00, 0e+00]
  RHS range        [1e+00, 1e+01]
Presolve removed 50 rows and 1102 columns
Presolve time: 0.01s
Presolved: 110 rows, 843 columns, 2770 nonzeros

Iteration    Objective       Primal Inf.    Dual Inf.      Time
       0    4.1153473e+04   1.100000e+01   0.000000e+00      0s
      19    4.0724706e+04   0.000000e+00   0.000000e+00      0s

Solved in 19 iterations and 0.02 seconds
Optimal objective  4.072470571e+04
Read LP format model from file forest.lp
Reading time = 0.01 seconds
: 160 rows, 1945 columns, 10172 nonzeros
Optimize a model with 160 rows, 1945 columns and 10172 nonzeros
Coefficient statistics:
  Matrix range     [1e+00, 2e+02]
  Objective range  [1e+00, 1e+00]
  Bounds range     [0e+00, 0e+00]
  RHS range        [1e+00, 1e+01]
Presolve removed 50 rows and 1102 columns
Presolve time: 0.00s
Presolved: 110 rows, 843 columns, 2770 nonzeros

Iteration    Objective       Primal Inf.    Dual Inf.      Time
       0    4.1153473e+04   1.100000e+01   0.000000e+00      0s
      19    4.0724706e+04   0.000000e+00   0.000000e+00      0s

Solved in 19 iterations and 0.00 seconds
Optimal objective  4.072470571e+04
Optimize a model with 160 rows, 1945 columns and 10172 nonzeros
Coefficient statistics:
  Matrix range     [1e+00, 2e+02]
  Objective range  [1e+00, 1e+00]
  Bounds range     [0e+00, 0e+00]
  RHS range        [1e+00, 1e+01]
Presolve removed 50 rows and 1102 columns
Presolve time: 0.00s
Presolved: 110 rows, 843 columns, 2770 nonzeros

Iteration    Objective       Primal Inf.    Dual Inf.      Time
       0    4.1153473e+04   1.100000e+01   0.000000e+00      0s
      19    4.0724706e+04   0.000000e+00   0.000000e+00      0s

Solved in 19 iterations and 0.00 seconds
Optimal objective  4.072470571e+04

Gurobi 7.0.1 (mac64, Python) logging started Thu Mar 30 15:09:04 2017

Read LP format model from file forest.lp
Reading time = 0.01 seconds
: 160 rows, 1945 columns, 10172 nonzeros

Gurobi 7.0.1 (mac64, Python) logging started Fri Mar 31 16:04:09 2017

Read LP format model from file forest.lp
Reading time = 0.01 seconds
: 160 rows, 1945 columns, 10172 nonzeros
Optimize a model with 160 rows, 1945 columns and 10172 nonzeros
Coefficient statistics:
  Matrix range     [1e+00, 2e+02]
  Objective range  [1e+00, 1e+00]
  Bounds range     [0e+00, 0e+00]
  RHS range        [1e+00, 1e+01]
Presolve removed 50 rows and 1102 columns
Presolve time: 0.01s
Presolved: 110 rows, 843 columns, 2770 nonzeros

Iteration    Objective       Primal Inf.    Dual Inf.      Time
       0    4.1153473e+04   1.100000e+01   0.000000e+00      0s
      19    4.0724706e+04   0.000000e+00   0.000000e+00      0s

Solved in 19 iterations and 0.02 seconds
Optimal objective  4.072470571e+04

Gurobi 7.0.1 (mac64, Python) logging started Fri Mar 31 16:11:45 2017

Read LP format model from file forest.lp
Reading time = 0.01 seconds
: 160 rows, 1945 columns, 10172 nonzeros
Optimize a model with 160 rows, 1945 columns and 10172 nonzeros
Coefficient statistics:
  Matrix range     [1e+00, 2e+02]
  Objective range  [1e+00, 1e+00]
  Bounds range     [0e+00, 0e+00]
  RHS range        [1e+00, 1e+01]
Presolve removed 50 rows and 1102 columns
Presolve time: 0.00s
Presolved: 110 rows, 843 columns, 2770 nonzeros

Iteration    Objective       Primal Inf.    Dual Inf.      Time
       0    4.1153473e+04   1.100000e+01   0.000000e+00      0s
      19    4.0724706e+04   0.000000e+00   0.000000e+00      0s

Solved in 19 iterations and 0.00 seconds
Optimal objective  4.072470571e+04
Optimize a model with 160 rows, 1945 columns and 10172 nonzeros
Coefficient statistics:
  Matrix range     [1e+00, 2e+02]
  Objective range  [1e+00, 1e+00]
  Bounds range     [0e+00, 0e+00]
  RHS range        [1e+00, 1e+01]

Solved in 19 iterations and 0.00 seconds
Optimal objective  4.072470571e+04
Read LP format model from file forest.lp
Reading time = 0.01 seconds
: 160 rows, 1945 columns, 10172 nonzeros
Optimize a model with 160 rows, 1945 columns and 10172 nonzeros
Coefficient statistics:
  Matrix range     [1e+00, 2e+02]
  Objective range  [1e+00, 1e+00]
  Bounds range     [0e+00, 0e+00]
  RHS range        [1e+00, 1e+01]
Presolve removed 50 rows and 1102 columns
Presolve time: 0.00s
Presolved: 110 rows, 843 columns, 2770 nonzeros

Iteration    Objective       Primal Inf.    Dual Inf.      Time
       0    4.1153473e+04   1.100000e+01   0.000000e+00      0s
      19    4.0724706e+04   0.000000e+00   0.000000e+00      0s

Solved in 19 iterations and 0.00 seconds
Optimal objective  4.072470571e+04
Optimize a model with 160 rows, 1945 columns and 10172 nonzeros
Coefficient statistics:
  Matrix range     [1e+00, 2e+02]
  Objective range  [1e+00, 1e+00]
  Bounds range     [0e+00, 0e+00]
  RHS range        [1e+00, 1e+01]

Solved in 19 iterations and 0.00 seconds
Optimal objective  4.072470571e+04
Optimize a model with 160 rows, 1945 columns and 10172 nonzeros
Coefficient statistics:
  Matrix range     [1e+00, 2e+02]
  Objective range  [1e+00, 1e+00]
  Bounds range     [0e+00, 0e+00]
  RHS range        [1e+00, 1e+01]

Solved in 19 iterations and 0.00 seconds
Optimal objective  4.072470571e+04

Gurobi 7.0.1 (mac64, Python) logging started Fri Mar 31 16:15:53 2017

Read LP format model from file forest.lp
Reading time = 0.01 seconds
: 160 rows, 1945 columns, 10172 nonzeros
Optimize a model with 160 rows, 1945 columns and 10172 nonzeros
Coefficient statistics:
  Matrix range     [1e+00, 2e+02]
  Objective range  [1e+00, 1e+00]
  Bounds range     [0e+00, 0e+00]
  RHS range        [1e+00, 1e+01]
Presolve removed 50 rows and 1102 columns
Presolve time: 0.00s
Presolved: 110 rows, 843 columns, 2770 nonzeros

Iteration    Objective       Primal Inf.    Dual Inf.      Time
       0    4.1153473e+04   1.100000e+01   0.000000e+00      0s
      19    4.0724706e+04   0.000000e+00   0.000000e+00      0s

Solved in 19 iterations and 0.00 seconds
Optimal objective  4.072470571e+04
Optimize a model with 160 rows, 1945 columns and 10172 nonzeros
Coefficient statistics:
  Matrix range     [1e+00, 2e+02]
  Objective range  [1e+00, 1e+00]
  Bounds range     [0e+00, 0e+00]
  RHS range        [1e+00, 1e+01]

Solved in 19 iterations and 0.00 seconds
Optimal objective  4.072470571e+04

Gurobi 7.0.1 (mac64, Python) logging started Fri Mar 31 16:21:12 2017

Read LP format model from file forest.lp
Reading time = 0.01 seconds
: 160 rows, 1945 columns, 10172 nonzeros

Gurobi 7.0.1 (mac64, Python) logging started Fri Mar 31 16:22:31 2017

Read LP format model from file forest.lp
Reading time = 0.01 seconds
: 160 rows, 1945 columns, 10172 nonzeros
Optimize a model with 160 rows, 1945 columns and 10172 nonzeros
Coefficient statistics:
  Matrix range     [1e+00, 2e+02]
  Objective range  [1e+00, 1e+00]
  Bounds range     [0e+00, 0e+00]
  RHS range        [1e+00, 1e+01]
Presolve removed 50 rows and 1102 columns
Presolve time: 0.00s
Presolved: 110 rows, 843 columns, 2770 nonzeros

Iteration    Objective       Primal Inf.    Dual Inf.      Time
       0    4.1153473e+04   1.100000e+01   0.000000e+00      0s
      19    4.0724706e+04   0.000000e+00   0.000000e+00      0s

Solved in 19 iterations and 0.00 seconds
Optimal objective  4.072470571e+04
Optimize a model with 160 rows, 1945 columns and 10172 nonzeros
Coefficient statistics:
  Matrix range     [1e+00, 2e+02]
  Objective range  [1e+00, 1e+00]
  Bounds range     [0e+00, 0e+00]
  RHS range        [1e+00, 1e+01]

Solved in 19 iterations and 0.00 seconds
Optimal objective  4.072470571e+04
Optimize a model with 152 rows, 1939 columns and 8706 nonzeros
Coefficient statistics:
  Matrix range     [1e+00, 2e+02]
  Objective range  [1e+00, 1e+00]
  Bounds range     [0e+00, 0e+00]
  RHS range        [1e+00, 1e+01]
Presolve removed 44 rows and 1370 columns
Presolve time: 0.00s
Presolved: 108 rows, 569 columns, 1682 nonzeros

Iteration    Objective       Primal Inf.    Dual Inf.      Time
       0    3.8129707e+04   5.000000e+00   0.000000e+00      0s
       7    3.8025779e+04   0.000000e+00   0.000000e+00      0s

Solved in 7 iterations and 0.00 seconds
Optimal objective  3.802577891e+04
Optimize a model with 152 rows, 1939 columns and 8706 nonzeros
Coefficient statistics:
  Matrix range     [1e+00, 2e+02]
  Objective range  [1e+00, 1e+00]
  Bounds range     [0e+00, 0e+00]
  RHS range        [1e+00, 1e+01]
Iteration    Objective       Primal Inf.    Dual Inf.      Time
       0    5.4000000e+32   9.131251e+32   5.400000e+02      0s
     202    3.7500000e+02   0.000000e+00   0.000000e+00      0s

Solved in 202 iterations and 0.00 seconds
Optimal objective  3.750000000e+02
Read LP format model from file forest.lp
Reading time = 0.01 seconds
: 160 rows, 1945 columns, 10172 nonzeros
Read LP format model from file forest.lp
Reading time = 0.01 seconds
: 160 rows, 1945 columns, 10172 nonzeros
Optimize a model with 160 rows, 1945 columns and 10172 nonzeros
Coefficient statistics:
  Matrix range     [1e+00, 2e+02]
  Objective range  [1e+00, 1e+00]
  Bounds range     [0e+00, 0e+00]
  RHS range        [1e+00, 1e+01]
Presolve removed 50 rows and 1102 columns
Presolve time: 0.00s
Presolved: 110 rows, 843 columns, 2770 nonzeros

Iteration    Objective       Primal Inf.    Dual Inf.      Time
       0    4.1153473e+04   1.100000e+01   0.000000e+00      0s
      19    4.0724706e+04   0.000000e+00   0.000000e+00      0s

Solved in 19 iterations and 0.00 seconds
Optimal objective  4.072470571e+04
Read LP format model from file forest.lp
Reading time = 0.01 seconds
: 160 rows, 1945 columns, 10172 nonzeros
Read LP format model from file forest.lp
Reading time = 0.01 seconds
: 160 rows, 1945 columns, 10172 nonzeros
Optimize a model with 160 rows, 1945 columns and 10172 nonzeros
Coefficient statistics:
  Matrix range     [1e+00, 2e+02]
  Objective range  [1e+00, 1e+00]
  Bounds range     [0e+00, 0e+00]
  RHS range        [1e+00, 1e+01]
Presolve removed 50 rows and 1102 columns
Presolve time: 0.00s
Presolved: 110 rows, 843 columns, 2770 nonzeros

Iteration    Objective       Primal Inf.    Dual Inf.      Time
       0    4.1153473e+04   1.100000e+01   0.000000e+00      0s
      19    4.0724706e+04   0.000000e+00   0.000000e+00      0s

Solved in 19 iterations and 0.00 seconds
Optimal objective  4.072470571e+04
Read LP format model from file forest.lp
Reading time = 0.01 seconds
: 160 rows, 1945 columns, 10172 nonzeros

Gurobi 7.0.1 (mac64, Python) logging started Fri Mar 31 16:39:42 2017

Read LP format model from file forest.lp
Reading time = 0.01 seconds
: 160 rows, 1945 columns, 10172 nonzeros
Read LP format model from file forest.lp
Reading time = 0.01 seconds
: 160 rows, 1945 columns, 10172 nonzeros
Read LP format model from file forest.lp
Reading time = 0.01 seconds
: 160 rows, 1945 columns, 10172 nonzeros
Read LP format model from file forest.lp
Reading time = 0.01 seconds
: 160 rows, 1945 columns, 10172 nonzeros
Read LP format model from file forest.lp
Reading time = 0.01 seconds
: 160 rows, 1945 columns, 10172 nonzeros
Read LP format model from file forest.lp
Reading time = 0.01 seconds
: 160 rows, 1945 columns, 10172 nonzeros
Read LP format model from file forest.lp
Reading time = 0.01 seconds
: 160 rows, 1945 columns, 10172 nonzeros
Read LP format model from file forest.lp
Reading time = 0.01 seconds
: 160 rows, 1945 columns, 10172 nonzeros
Read LP format model from file forest.lp
Reading time = 0.01 seconds
: 160 rows, 1945 columns, 10172 nonzeros
Read LP format model from file forest.lp
Reading time = 0.01 seconds
: 160 rows, 1945 columns, 10172 nonzeros
Read LP format model from file forest.lp
Reading time = 0.01 seconds
: 160 rows, 1945 columns, 10172 nonzeros
Read LP format model from file forest.lp
Reading time = 0.01 seconds
: 160 rows, 1945 columns, 10172 nonzeros
Read LP format model from file forest.lp
Reading time = 0.01 seconds
: 160 rows, 1945 columns, 10172 nonzeros
Optimize a model with 160 rows, 1945 columns and 10172 nonzeros
Coefficient statistics:
  Matrix range     [1e+00, 2e+02]
  Objective range  [1e+00, 1e+00]
  Bounds range     [0e+00, 0e+00]
  RHS range        [1e+00, 1e+01]
Presolve removed 50 rows and 1102 columns
Presolve time: 0.00s
Presolved: 110 rows, 843 columns, 2770 nonzeros

Iteration    Objective       Primal Inf.    Dual Inf.      Time
       0    4.1153473e+04   1.100000e+01   0.000000e+00      0s
      19    4.0724706e+04   0.000000e+00   0.000000e+00      0s

Solved in 19 iterations and 0.00 seconds
Optimal objective  4.072470571e+04
Read LP format model from file forest.lp
Reading time = 0.01 seconds
: 160 rows, 1945 columns, 10172 nonzeros
Read LP format model from file forest.lp
Reading time = 0.01 seconds
: 160 rows, 1945 columns, 10172 nonzeros
Optimize a model with 160 rows, 1945 columns and 10172 nonzeros
Coefficient statistics:
  Matrix range     [1e+00, 2e+02]
  Objective range  [1e+00, 1e+00]
  Bounds range     [0e+00, 0e+00]
  RHS range        [1e+00, 1e+01]
Presolve removed 50 rows and 1102 columns
Presolve time: 0.00s
Presolved: 110 rows, 843 columns, 2770 nonzeros

Iteration    Objective       Primal Inf.    Dual Inf.      Time
       0    4.1153473e+04   1.100000e+01   0.000000e+00      0s
      19    4.0724706e+04   0.000000e+00   0.000000e+00      0s

Solved in 19 iterations and 0.00 seconds
Optimal objective  4.072470571e+04

Gurobi 7.0.1 (mac64, Python) logging started Fri Mar 31 17:09:48 2017

Read LP format model from file forest.lp
Reading time = 0.01 seconds
: 160 rows, 1945 columns, 10172 nonzeros
Optimize a model with 160 rows, 1945 columns and 10172 nonzeros
Coefficient statistics:
  Matrix range     [1e+00, 2e+02]
  Objective range  [1e+00, 1e+00]
  Bounds range     [0e+00, 0e+00]
  RHS range        [1e+00, 1e+01]
Presolve removed 50 rows and 1102 columns
Presolve time: 0.00s
Presolved: 110 rows, 843 columns, 2770 nonzeros

Iteration    Objective       Primal Inf.    Dual Inf.      Time
       0    4.1153473e+04   1.100000e+01   0.000000e+00      0s
      19    4.0724706e+04   0.000000e+00   0.000000e+00      0s

Solved in 19 iterations and 0.00 seconds
Optimal objective  4.072470571e+04
Optimize a model with 152 rows, 1939 columns and 8706 nonzeros
Coefficient statistics:
  Matrix range     [1e+00, 2e+02]
  Objective range  [1e+00, 1e+00]
  Bounds range     [0e+00, 0e+00]
  RHS range        [1e+00, 1e+01]
Presolve removed 44 rows and 1370 columns
Presolve time: 0.00s
Presolved: 108 rows, 569 columns, 1682 nonzeros

Iteration    Objective       Primal Inf.    Dual Inf.      Time
       0    3.8129707e+04   5.000000e+00   0.000000e+00      0s
       7    3.8025779e+04   0.000000e+00   0.000000e+00      0s

Solved in 7 iterations and 0.00 seconds
Optimal objective  3.802577891e+04
Optimize a model with 152 rows, 1939 columns and 8706 nonzeros
Coefficient statistics:
  Matrix range     [1e+00, 2e+02]
  Objective range  [1e+00, 1e+00]
  Bounds range     [0e+00, 0e+00]
  RHS range        [1e+00, 1e+01]
Iteration    Objective       Primal Inf.    Dual Inf.      Time
       0    5.4000000e+32   9.131251e+32   5.400000e+02      0s
     202    3.7500000e+02   0.000000e+00   0.000000e+00      0s

Solved in 202 iterations and 0.00 seconds
Optimal objective  3.750000000e+02
Read LP format model from file forest.lp
Reading time = 0.01 seconds
: 160 rows, 1945 columns, 10172 nonzeros
Optimize a model with 160 rows, 1945 columns and 10172 nonzeros
Coefficient statistics:
  Matrix range     [1e+00, 2e+02]
  Objective range  [1e+00, 1e+00]
  Bounds range     [0e+00, 0e+00]
  RHS range        [1e+00, 1e+01]
Presolve removed 50 rows and 1102 columns
Presolve time: 0.00s
Presolved: 110 rows, 843 columns, 2770 nonzeros

Iteration    Objective       Primal Inf.    Dual Inf.      Time
       0    4.1153473e+04   1.100000e+01   0.000000e+00      0s
      19    4.0724706e+04   0.000000e+00   0.000000e+00      0s

Solved in 19 iterations and 0.00 seconds
Optimal objective  4.072470571e+04
Optimize a model with 152 rows, 1939 columns and 8706 nonzeros
Coefficient statistics:
  Matrix range     [1e+00, 2e+02]
  Objective range  [1e+00, 1e+00]
  Bounds range     [0e+00, 0e+00]
  RHS range        [1e+00, 1e+01]
Presolve removed 44 rows and 1370 columns
Presolve time: 0.00s
Presolved: 108 rows, 569 columns, 1682 nonzeros

Iteration    Objective       Primal Inf.    Dual Inf.      Time
       0    3.8129707e+04   5.000000e+00   0.000000e+00      0s
       7    3.8025779e+04   0.000000e+00   0.000000e+00      0s

Solved in 7 iterations and 0.00 seconds
Optimal objective  3.802577891e+04

Gurobi 7.0.1 (mac64, Python) logging started Fri Mar 31 17:12:06 2017

Read LP format model from file forest.lp
Reading time = 0.01 seconds
: 160 rows, 1945 columns, 10172 nonzeros
Optimize a model with 160 rows, 1945 columns and 10172 nonzeros
Coefficient statistics:
  Matrix range     [1e+00, 2e+02]
  Objective range  [1e+00, 1e+00]
  Bounds range     [0e+00, 0e+00]
  RHS range        [1e+00, 1e+01]
Presolve removed 50 rows and 1102 columns
Presolve time: 0.00s
Presolved: 110 rows, 843 columns, 2770 nonzeros

Iteration    Objective       Primal Inf.    Dual Inf.      Time
       0    4.1153473e+04   1.100000e+01   0.000000e+00      0s
      19    4.0724706e+04   0.000000e+00   0.000000e+00      0s

Solved in 19 iterations and 0.00 seconds
Optimal objective  4.072470571e+04
Optimize a model with 152 rows, 1939 columns and 8706 nonzeros
Coefficient statistics:
  Matrix range     [1e+00, 2e+02]
  Objective range  [1e+00, 1e+00]
  Bounds range     [0e+00, 0e+00]
  RHS range        [1e+00, 1e+01]
Presolve removed 44 rows and 1370 columns
Presolve time: 0.00s
Presolved: 108 rows, 569 columns, 1682 nonzeros

Iteration    Objective       Primal Inf.    Dual Inf.      Time
       0    3.8129707e+04   5.000000e+00   0.000000e+00      0s
       7    3.8025779e+04   0.000000e+00   0.000000e+00      0s

Solved in 7 iterations and 0.00 seconds
Optimal objective  3.802577891e+04
Optimize a model with 152 rows, 1939 columns and 8706 nonzeros
Coefficient statistics:
  Matrix range     [1e+00, 2e+02]
  Objective range  [1e+00, 1e+00]
  Bounds range     [0e+00, 0e+00]
  RHS range        [1e+00, 1e+01]
Iteration    Objective       Primal Inf.    Dual Inf.      Time
       0    5.4000000e+32   9.131251e+32   5.400000e+02      0s
     202    3.7500000e+02   0.000000e+00   0.000000e+00      0s

Solved in 202 iterations and 0.00 seconds
Optimal objective  3.750000000e+02
Read LP format model from file forest.lp
Reading time = 0.01 seconds
: 160 rows, 1945 columns, 10172 nonzeros

Gurobi 7.0.1 (mac64, Python) logging started Fri Mar 31 17:13:22 2017

Read LP format model from file forest.lp
Reading time = 0.01 seconds
: 160 rows, 1945 columns, 10172 nonzeros
Optimize a model with 160 rows, 1945 columns and 10172 nonzeros
Coefficient statistics:
  Matrix range     [1e+00, 2e+02]
  Objective range  [1e+00, 1e+00]
  Bounds range     [0e+00, 0e+00]
  RHS range        [1e+00, 1e+01]
Presolve removed 50 rows and 1102 columns
Presolve time: 0.00s
Presolved: 110 rows, 843 columns, 2770 nonzeros

Iteration    Objective       Primal Inf.    Dual Inf.      Time
       0    4.1153473e+04   1.100000e+01   0.000000e+00      0s
      19    4.0724706e+04   0.000000e+00   0.000000e+00      0s

Solved in 19 iterations and 0.00 seconds
Optimal objective  4.072470571e+04
Optimize a model with 152 rows, 1939 columns and 8706 nonzeros
Coefficient statistics:
  Matrix range     [1e+00, 2e+02]
  Objective range  [1e+00, 1e+00]
  Bounds range     [0e+00, 0e+00]
  RHS range        [1e+00, 1e+01]
Presolve removed 44 rows and 1370 columns
Presolve time: 0.00s
Presolved: 108 rows, 569 columns, 1682 nonzeros

Iteration    Objective       Primal Inf.    Dual Inf.      Time
       0    3.8129707e+04   5.000000e+00   0.000000e+00      0s
       7    3.8025779e+04   0.000000e+00   0.000000e+00      0s

Solved in 7 iterations and 0.00 seconds
Optimal objective  3.802577891e+04
Optimize a model with 152 rows, 1939 columns and 8706 nonzeros
Coefficient statistics:
  Matrix range     [1e+00, 2e+02]
  Objective range  [1e+00, 1e+00]
  Bounds range     [0e+00, 0e+00]
  RHS range        [1e+00, 1e+01]
Iteration    Objective       Primal Inf.    Dual Inf.      Time
       0    5.4000000e+32   9.131251e+32   5.400000e+02      0s
     202    3.7500000e+02   0.000000e+00   0.000000e+00      0s

Solved in 202 iterations and 0.00 seconds
Optimal objective  3.750000000e+02
Read LP format model from file forest.lp
Reading time = 0.01 seconds
: 160 rows, 1945 columns, 10172 nonzeros
Optimize a model with 152 rows, 1939 columns and 8706 nonzeros
Coefficient statistics:
  Matrix range     [1e+00, 2e+02]
  Objective range  [1e+00, 1e+00]
  Bounds range     [0e+00, 0e+00]
  RHS range        [1e+00, 1e+01]
Presolve removed 44 rows and 1394 columns
Presolve time: 0.00s
Presolved: 108 rows, 545 columns, 1658 nonzeros

Iteration    Objective       Primal Inf.    Dual Inf.      Time
       0    1.1141210e+03   2.035147e+03   0.000000e+00      0s
     112    3.7500000e+02   0.000000e+00   0.000000e+00      0s

Solved in 112 iterations and 0.00 seconds
Optimal objective  3.750000000e+02

Gurobi 7.0.1 (mac64, Python) logging started Fri Mar 31 17:14:07 2017

Read LP format model from file forest.lp
Reading time = 0.01 seconds
: 160 rows, 1945 columns, 10172 nonzeros
Optimize a model with 160 rows, 1945 columns and 10172 nonzeros
Coefficient statistics:
  Matrix range     [1e+00, 2e+02]
  Objective range  [1e+00, 1e+00]
  Bounds range     [0e+00, 0e+00]
  RHS range        [1e+00, 1e+01]
Presolve removed 50 rows and 1102 columns
Presolve time: 0.00s
Presolved: 110 rows, 843 columns, 2770 nonzeros

Iteration    Objective       Primal Inf.    Dual Inf.      Time
       0    4.1153473e+04   1.100000e+01   0.000000e+00      0s
      19    4.0724706e+04   0.000000e+00   0.000000e+00      0s

Solved in 19 iterations and 0.00 seconds
Optimal objective  4.072470571e+04
Optimize a model with 152 rows, 1939 columns and 8706 nonzeros
Coefficient statistics:
  Matrix range     [1e+00, 2e+02]
  Objective range  [1e+00, 1e+00]
  Bounds range     [0e+00, 0e+00]
  RHS range        [1e+00, 1e+01]
Presolve removed 44 rows and 1370 columns
Presolve time: 0.00s
Presolved: 108 rows, 569 columns, 1682 nonzeros

Iteration    Objective       Primal Inf.    Dual Inf.      Time
       0    3.8129707e+04   5.000000e+00   0.000000e+00      0s
       7    3.8025779e+04   0.000000e+00   0.000000e+00      0s

Solved in 7 iterations and 0.00 seconds
Optimal objective  3.802577891e+04
Optimize a model with 152 rows, 1939 columns and 8706 nonzeros
Coefficient statistics:
  Matrix range     [1e+00, 2e+02]
  Objective range  [1e+00, 1e+00]
  Bounds range     [0e+00, 0e+00]
  RHS range        [1e+00, 1e+01]
Iteration    Objective       Primal Inf.    Dual Inf.      Time
       0    5.4000000e+32   9.131251e+32   5.400000e+02      0s
     202    3.7500000e+02   0.000000e+00   0.000000e+00      0s

Solved in 202 iterations and 0.00 seconds
Optimal objective  3.750000000e+02
Read LP format model from file forest.lp
Reading time = 0.01 seconds
: 160 rows, 1945 columns, 10172 nonzeros
Optimize a model with 152 rows, 1939 columns and 8706 nonzeros
Coefficient statistics:
  Matrix range     [1e+00, 2e+02]
  Objective range  [1e+00, 1e+00]
  Bounds range     [0e+00, 0e+00]
  RHS range        [1e+00, 1e+01]
Presolve removed 44 rows and 1394 columns
Presolve time: 0.00s
Presolved: 108 rows, 545 columns, 1658 nonzeros

Iteration    Objective       Primal Inf.    Dual Inf.      Time
       0    1.1141210e+03   2.035147e+03   0.000000e+00      0s
     112    3.7500000e+02   0.000000e+00   0.000000e+00      0s

Solved in 112 iterations and 0.00 seconds
Optimal objective  3.750000000e+02

Gurobi 7.0.1 (mac64, Python) logging started Mon Apr  3 11:18:13 2017

Read LP format model from file forest.lp
Reading time = 0.01 seconds
: 160 rows, 1945 columns, 10172 nonzeros
Optimize a model with 160 rows, 1945 columns and 10172 nonzeros
Coefficient statistics:
  Matrix range     [1e+00, 2e+02]
  Objective range  [1e+00, 1e+00]
  Bounds range     [0e+00, 0e+00]
  RHS range        [1e+00, 1e+01]
Presolve removed 50 rows and 1102 columns
Presolve time: 0.00s
Presolved: 110 rows, 843 columns, 2770 nonzeros

Iteration    Objective       Primal Inf.    Dual Inf.      Time
       0    4.1153473e+04   1.100000e+01   0.000000e+00      0s
      19    4.0724706e+04   0.000000e+00   0.000000e+00      0s

Solved in 19 iterations and 0.00 seconds
Optimal objective  4.072470571e+04
Optimize a model with 152 rows, 1939 columns and 8706 nonzeros
Coefficient statistics:
  Matrix range     [1e+00, 2e+02]
  Objective range  [1e+00, 1e+00]
  Bounds range     [0e+00, 0e+00]
  RHS range        [1e+00, 1e+01]
Presolve removed 44 rows and 1370 columns
Presolve time: 0.00s
Presolved: 108 rows, 569 columns, 1682 nonzeros

Iteration    Objective       Primal Inf.    Dual Inf.      Time
       0    3.8129707e+04   5.000000e+00   0.000000e+00      0s
       7    3.8025779e+04   0.000000e+00   0.000000e+00      0s

Solved in 7 iterations and 0.00 seconds
Optimal objective  3.802577891e+04
Optimize a model with 152 rows, 1939 columns and 8706 nonzeros
Coefficient statistics:
  Matrix range     [1e+00, 2e+02]
  Objective range  [1e+00, 1e+00]
  Bounds range     [0e+00, 0e+00]
  RHS range        [1e+00, 1e+01]
Iteration    Objective       Primal Inf.    Dual Inf.      Time
       0    5.4000000e+32   9.131251e+32   5.400000e+02      0s
     202    3.7500000e+02   0.000000e+00   0.000000e+00      0s

Solved in 202 iterations and 0.00 seconds
Optimal objective  3.750000000e+02
Read LP format model from file forest.lp
Reading time = 0.01 seconds
: 160 rows, 1945 columns, 10172 nonzeros
Read LP format model from file forest.lp
Reading time = 0.02 seconds
: 160 rows, 1945 columns, 10172 nonzeros
Optimize a model with 160 rows, 1945 columns and 10172 nonzeros
Coefficient statistics:
  Matrix range     [1e+00, 2e+02]
  Objective range  [1e+00, 1e+00]
  Bounds range     [0e+00, 0e+00]
  RHS range        [1e+00, 1e+01]
Presolve removed 50 rows and 1102 columns
Presolve time: 0.00s
Presolved: 110 rows, 843 columns, 2770 nonzeros

Iteration    Objective       Primal Inf.    Dual Inf.      Time
       0    4.1153473e+04   1.100000e+01   0.000000e+00      0s
      19    4.0724706e+04   0.000000e+00   0.000000e+00      0s

Solved in 19 iterations and 0.00 seconds
Optimal objective  4.072470571e+04
Optimize a model with 152 rows, 1939 columns and 8706 nonzeros
Coefficient statistics:
  Matrix range     [1e+00, 2e+02]
  Objective range  [1e+00, 1e+00]
  Bounds range     [0e+00, 0e+00]
  RHS range        [1e+00, 1e+01]
Presolve removed 44 rows and 1370 columns
Presolve time: 0.00s
Presolved: 108 rows, 569 columns, 1682 nonzeros

Iteration    Objective       Primal Inf.    Dual Inf.      Time
       0    3.8129707e+04   5.000000e+00   0.000000e+00      0s
       7    3.8025779e+04   0.000000e+00   0.000000e+00      0s

Solved in 7 iterations and 0.00 seconds
Optimal objective  3.802577891e+04
Optimize a model with 152 rows, 1939 columns and 8706 nonzeros
Coefficient statistics:
  Matrix range     [1e+00, 2e+02]
  Objective range  [1e+00, 1e+00]
  Bounds range     [0e+00, 0e+00]
  RHS range        [1e+00, 1e+01]
Iteration    Objective       Primal Inf.    Dual Inf.      Time
       0    5.4000000e+32   9.131251e+32   5.400000e+02      0s
     202    3.7500000e+02   0.000000e+00   0.000000e+00      0s

Solved in 202 iterations and 0.01 seconds
Optimal objective  3.750000000e+02
Read LP format model from file forest.lp
Reading time = 0.01 seconds
: 160 rows, 1945 columns, 10172 nonzeros
Optimize a model with 152 rows, 1939 columns and 8706 nonzeros
Coefficient statistics:
  Matrix range     [1e+00, 2e+02]
  Objective range  [1e+00, 1e+00]
  Bounds range     [0e+00, 0e+00]
  RHS range        [1e+00, 1e+01]
Presolve removed 44 rows and 1394 columns
Presolve time: 0.00s
Presolved: 108 rows, 545 columns, 1658 nonzeros

Iteration    Objective       Primal Inf.    Dual Inf.      Time
       0    1.1141210e+03   2.035147e+03   0.000000e+00      0s
     112    3.7500000e+02   0.000000e+00   0.000000e+00      0s

Solved in 112 iterations and 0.00 seconds
Optimal objective  3.750000000e+02
Read LP format model from file forest.lp
Reading time = 0.02 seconds
: 160 rows, 1945 columns, 10172 nonzeros
Optimize a model with 160 rows, 1945 columns and 10172 nonzeros
Coefficient statistics:
  Matrix range     [1e+00, 2e+02]
  Objective range  [1e+00, 1e+00]
  Bounds range     [0e+00, 0e+00]
  RHS range        [1e+00, 1e+01]
Presolve removed 50 rows and 1102 columns
Presolve time: 0.00s
Presolved: 110 rows, 843 columns, 2770 nonzeros

Iteration    Objective       Primal Inf.    Dual Inf.      Time
       0    4.1153473e+04   1.100000e+01   0.000000e+00      0s
      19    4.0724706e+04   0.000000e+00   0.000000e+00      0s

Solved in 19 iterations and 0.00 seconds
Optimal objective  4.072470571e+04
Read LP format model from file forest.lp
Reading time = 0.01 seconds
: 160 rows, 1945 columns, 10172 nonzeros
Optimize a model with 160 rows, 1945 columns and 10172 nonzeros
Coefficient statistics:
  Matrix range     [1e+00, 2e+02]
  Objective range  [1e+00, 1e+00]
  Bounds range     [0e+00, 0e+00]
  RHS range        [1e+00, 1e+01]
Presolve removed 50 rows and 1102 columns
Presolve time: 0.00s
Presolved: 110 rows, 843 columns, 2770 nonzeros

Iteration    Objective       Primal Inf.    Dual Inf.      Time
       0    4.1153473e+04   1.100000e+01   0.000000e+00      0s
      19    4.0724706e+04   0.000000e+00   0.000000e+00      0s

Solved in 19 iterations and 0.00 seconds
Optimal objective  4.072470571e+04
Read LP format model from file forest.lp
Reading time = 0.01 seconds
: 160 rows, 1945 columns, 10172 nonzeros
Optimize a model with 160 rows, 1945 columns and 10172 nonzeros
Coefficient statistics:
  Matrix range     [1e+00, 2e+02]
  Objective range  [1e+00, 1e+00]
  Bounds range     [0e+00, 0e+00]
  RHS range        [1e+00, 1e+01]
Presolve removed 50 rows and 1102 columns
Presolve time: 0.00s
Presolved: 110 rows, 843 columns, 2770 nonzeros

Iteration    Objective       Primal Inf.    Dual Inf.      Time
       0    4.1153473e+04   1.100000e+01   0.000000e+00      0s
      19    4.0724706e+04   0.000000e+00   0.000000e+00      0s

Solved in 19 iterations and 0.00 seconds
Optimal objective  4.072470571e+04
Optimize a model with 152 rows, 1939 columns and 8706 nonzeros
Coefficient statistics:
  Matrix range     [1e+00, 2e+02]
  Objective range  [1e+00, 1e+00]
  Bounds range     [0e+00, 0e+00]
  RHS range        [1e+00, 1e+01]
Presolve removed 44 rows and 1370 columns
Presolve time: 0.00s
Presolved: 108 rows, 569 columns, 1682 nonzeros

Iteration    Objective       Primal Inf.    Dual Inf.      Time
       0    3.8129707e+04   5.000000e+00   0.000000e+00      0s
       7    3.8025779e+04   0.000000e+00   0.000000e+00      0s

Solved in 7 iterations and 0.00 seconds
Optimal objective  3.802577891e+04
Optimize a model with 152 rows, 1939 columns and 8706 nonzeros
Coefficient statistics:
  Matrix range     [1e+00, 2e+02]
  Objective range  [1e+00, 1e+00]
  Bounds range     [0e+00, 0e+00]
  RHS range        [1e+00, 1e+01]
Iteration    Objective       Primal Inf.    Dual Inf.      Time
       0    5.4000000e+32   9.131251e+32   5.400000e+02      0s
     202    3.7500000e+02   0.000000e+00   0.000000e+00      0s

Solved in 202 iterations and 0.00 seconds
Optimal objective  3.750000000e+02
Read LP format model from file forest.lp
Reading time = 0.01 seconds
: 160 rows, 1945 columns, 10172 nonzeros
Optimize a model with 152 rows, 1939 columns and 8706 nonzeros
Coefficient statistics:
  Matrix range     [1e+00, 2e+02]
  Objective range  [1e+00, 1e+00]
  Bounds range     [0e+00, 0e+00]
  RHS range        [1e+00, 1e+01]
Presolve removed 44 rows and 1394 columns
Presolve time: 0.00s
Presolved: 108 rows, 545 columns, 1658 nonzeros

Iteration    Objective       Primal Inf.    Dual Inf.      Time
       0    1.1141210e+03   2.035147e+03   0.000000e+00      0s
     112    3.7500000e+02   0.000000e+00   0.000000e+00      0s

Solved in 112 iterations and 0.00 seconds
Optimal objective  3.750000000e+02
Read LP format model from file forest.lp
Reading time = 0.02 seconds
: 160 rows, 1945 columns, 10172 nonzeros
Optimize a model with 160 rows, 1945 columns and 10172 nonzeros
Coefficient statistics:
  Matrix range     [1e+00, 2e+02]
  Objective range  [1e+00, 1e+00]
  Bounds range     [0e+00, 0e+00]
  RHS range        [1e+00, 1e+01]
Presolve removed 50 rows and 1102 columns
Presolve time: 0.00s
Presolved: 110 rows, 843 columns, 2770 nonzeros

Iteration    Objective       Primal Inf.    Dual Inf.      Time
       0    4.1153473e+04   1.100000e+01   0.000000e+00      0s
      19    4.0724706e+04   0.000000e+00   0.000000e+00      0s

Solved in 19 iterations and 0.00 seconds
Optimal objective  4.072470571e+04
Optimize a model with 152 rows, 1939 columns and 8706 nonzeros
Coefficient statistics:
  Matrix range     [1e+00, 2e+02]
  Objective range  [1e+00, 1e+00]
  Bounds range     [0e+00, 0e+00]
  RHS range        [1e+00, 1e+01]
Presolve removed 44 rows and 1370 columns
Presolve time: 0.00s
Presolved: 108 rows, 569 columns, 1682 nonzeros

Iteration    Objective       Primal Inf.    Dual Inf.      Time
       0    3.8129707e+04   5.000000e+00   0.000000e+00      0s
       7    3.8025779e+04   0.000000e+00   0.000000e+00      0s

Solved in 7 iterations and 0.00 seconds
Optimal objective  3.802577891e+04
Optimize a model with 152 rows, 1939 columns and 8706 nonzeros
Coefficient statistics:
  Matrix range     [1e+00, 2e+02]
  Objective range  [1e+00, 1e+00]
  Bounds range     [0e+00, 0e+00]
  RHS range        [1e+00, 1e+01]
Iteration    Objective       Primal Inf.    Dual Inf.      Time
       0    5.4000000e+32   9.131251e+32   5.400000e+02      0s
     202    3.7500000e+02   0.000000e+00   0.000000e+00      0s

Solved in 202 iterations and 0.00 seconds
Optimal objective  3.750000000e+02
Read LP format model from file forest.lp
Reading time = 0.01 seconds
: 160 rows, 1945 columns, 10172 nonzeros
Optimize a model with 152 rows, 1939 columns and 8706 nonzeros
Coefficient statistics:
  Matrix range     [1e+00, 2e+02]
  Objective range  [1e+00, 1e+00]
  Bounds range     [0e+00, 0e+00]
  RHS range        [1e+00, 1e+01]
Presolve removed 44 rows and 1394 columns
Presolve time: 0.00s
Presolved: 108 rows, 545 columns, 1658 nonzeros

Iteration    Objective       Primal Inf.    Dual Inf.      Time
       0    1.1141210e+03   2.035147e+03   0.000000e+00      0s
     112    3.7500000e+02   0.000000e+00   0.000000e+00      0s

Solved in 112 iterations and 0.00 seconds
Optimal objective  3.750000000e+02
